NAME : cgl_70.9362.tour
COMMENT : Length = 9362
COMMENT : Found by LKH-3 [Keld Helsgaun] Fri Nov  8 17:38:20 2024
TYPE : TOUR
DIMENSION : 71
TOUR_SECTION
19
18
14
17
13
16
15
12
7
10
9
8
11
23
25
24
29
31
35
33
34
32
30
36
38
37
43
39
44
45
46
47
48
51
52
53
49
50
70
62
61
63
64
65
66
69
68
67
60
56
55
54
58
59
57
6
5
2
3
4
1
71
42
40
41
26
28
27
21
22
20
-1
EOF
